NAME : brazil58
TYPE : OP
DIMENSION : 58
COST_LIMIT : 12698
ROUTE_NODES : 46
ROUTE_SCORE : 46
ROUTE_COST : 12685
NODE_SEQUENCE_SECTION
1
18
44
58
24
57
12
27
43
49
47
51
52
10
35
3
36
17
26
19
6
28
14
37
34
46
56
45
33
29
39
48
41
2
54
55
22
8
5
23
30
40
25
32
9
13
-1
DEPOT_SECTION
1
-1
EOF
